qbf_easy_train/easy_959_SAT.qdimacs
p cnf 33 91
a 10 3 23 0
e 1 2 4 5 6 7 8 9 11 12 13 14 15 16 17 18 19 20 21 22 24 25 26 27 28 29 30 31 32 33 0
1 2 -3 0
-1 -2 -3 0
1 -2 3 0
-1 2 3 0
-3 -4 -5 0
3 4 -5 0
-3 4 5 0
3 -4 5 0
-5 2 -6 0
5 -2 -6 0
-5 -2 6 0
5 2 6 0
8 7 0
8 -2 0
-7 2 -8 0
11 -9 0
11 10 0
9 -10 -11 0
12 8 0
12 -11 0
-8 11 -12 0
13 7 0
13 5 0
-7 -5 -13 0
16 10 0
16 -15 0
-10 15 -16 0
17 16 0
17 7 0
-16 -7 -17 0
-18 14 0
-18 -17 0
-14 17 18 0
19 -13 0
19 -18 0
13 18 -19 0
-12 -19 -20 0
12 19 -20 0
-12 19 20 0
12 -19 20 0
14 -4 -21 0
-14 4 -21 0
14 4 21 0
-14 -4 21 0
-22 4 0
-22 -16 0
-4 16 22 0
-22 -1 -23 0
22 1 -23 0
-22 1 23 0
22 -1 23 0
-24 -21 0
-24 -23 0
21 23 24 0
25 -4 0
25 14 0
4 -14 -25 0
-26 16 0
-26 -25 0
-16 25 26 0
-27 -24 0
-27 26 0
24 -26 27 0
16 -21 -28 0
-16 21 -28 0
16 21 28 0
-16 -21 28 0
29 4 0
29 -1 0
-4 1 -29 0
30 28 0
30 29 0
-28 -29 -30 0
-31 27 0
-31 -30 0
-27 30 31 0
32 -20 0
32 31 0
20 -31 -32 0
-33 6 0
-33 32 0
-6 -32 33 0
-5 4 -30 -21 13 -23 0
-10 15 -19 -33 -18 -32 0
12 -14 -6 22 -27 -4 0
10 1 -19 -9 27 0
13 5 27 -6 33 -30 0
17 -21 12 22 0
21 14 26 22 0
-26 -20 23 -19 0
33 0
