sat_easy_train/easy_959_SAT.dimacs
p cnf 144 483
3 1 0
3 -2 0
-1 2 -3 0
-6 -2 0
-6 -5 0
2 5 6 0
7 4 0
7 6 0
-4 -6 -7 0
-7 2 -8 0
7 -2 -8 0
-7 -2 8 0
7 2 8 0
9 3 0
9 -8 0
-3 8 -9 0
10 4 0
10 -4 0
-11 -10 0
-11 6 0
10 -6 11 0
9 -11 -12 0
-9 11 -12 0
9 11 12 0
-9 -11 12 0
13 12 0
13 -10 0
-12 10 -13 0
-14 7 0
-14 1 0
-7 -1 14 0
-15 -13 0
-15 -14 0
13 14 15 0
-4 3 -16 0
4 -3 -16 0
-4 -3 16 0
4 3 16 0
-15 16 -17 0
15 -16 -17 0
-15 -16 17 0
15 16 17 0
19 -20 -21 0
-19 20 -21 0
19 20 21 0
-19 -20 21 0
-22 -18 0
-22 21 0
18 -21 22 0
23 -4 0
23 -1 0
4 1 -23 0
25 -24 0
25 -2 0
24 2 -25 0
23 25 -26 0
-23 -25 -26 0
23 -25 26 0
-23 25 26 0
27 20 0
27 -26 0
-20 26 -27 0
-22 27 -28 0
22 -27 -28 0
-22 -27 28 0
22 27 28 0
-31 29 0
-31 30 0
-29 -30 31 0
31 -8 -32 0
-31 8 -32 0
31 8 32 0
-31 -8 32 0
33 10 0
33 32 0
-10 -32 -33 0
-6 -22 -34 0
6 22 -34 0
-6 22 34 0
6 -22 34 0
-35 -3 0
-35 34 0
3 -34 35 0
-35 12 -36 0
35 -12 -36 0
-35 -12 36 0
35 12 36 0
-37 -31 0
-37 23 0
31 -23 37 0
38 -19 0
38 -23 0
19 23 -38 0
-39 -37 0
-39 38 0
37 -38 39 0
40 26 0
40 39 0
-26 -39 -40 0
-41 -36 0
-41 -40 0
36 40 41 0
42 -33 0
42 -41 0
33 41 -42 0
43 -28 0
43 -42 0
28 42 -43 0
-45 29 0
-45 -44 0
-29 44 45 0
-46 1 0
-46 45 0
-1 -45 46 0
49 19 0
49 -48 0
-19 48 -49 0
-50 47 0
-50 49 0
-47 -49 50 0
51 38 0
51 -29 0
-38 29 -51 0
-47 -30 -52 0
47 30 -52 0
-47 30 52 0
47 -30 52 0
-53 51 0
-53 52 0
-51 -52 53 0
50 53 -54 0
-50 -53 -54 0
50 -53 54 0
-50 53 54 0
46 54 -55 0
-46 -54 -55 0
46 -54 55 0
-46 54 55 0
56 -10 0
56 11 0
10 -11 -56 0
57 24 0
57 -18 0
-24 18 -57 0
-56 57 -58 0
56 -57 -58 0
-56 -57 58 0
56 57 58 0
59 -48 0
59 -21 0
48 21 -59 0
60 58 0
60 -59 0
-58 59 -60 0
61 -55 0
61 -60 0
55 60 -61 0
62 43 0
62 -61 0
-43 61 -62 0
-63 35 0
-63 24 0
-35 -24 63 0
-63 -34 -64 0
63 34 -64 0
-63 34 64 0
63 -34 64 0
30 5 -65 0
-30 -5 -65 0
30 -5 65 0
-30 5 65 0
-21 65 -66 0
21 -65 -66 0
-21 -65 66 0
21 65 66 0
-67 -8 0
-67 23 0
8 -23 67 0
10 67 -68 0
-10 -67 -68 0
10 -67 68 0
-10 67 68 0
-69 -68 0
-69 67 0
68 -67 69 0
-70 66 0
-70 -69 0
-66 69 70 0
64 70 -71 0
-64 -70 -71 0
64 -70 71 0
-64 70 71 0
72 -37 0
72 48 0
37 -48 -72 0
-73 -18 0
-73 21 0
18 -21 73 0
74 -73 0
74 47 0
73 -47 -74 0
-75 37 0
-75 52 0
-37 -52 75 0
-76 -74 0
-76 75 0
74 -75 76 0
-52 -9 -77 0
52 9 -77 0
-52 9 77 0
52 -9 77 0
-78 34 0
-78 -77 0
-34 77 78 0
-79 76 0
-79 78 0
-76 -78 79 0
80 72 0
80 79 0
-72 -79 -80 0
-11 81 -82 0
11 -81 -82 0
-11 -81 82 0
11 81 82 0
-83 -9 0
-83 39 0
9 -39 83 0
-84 -82 0
-84 83 0
82 -83 84 0
-85 -30 0
-85 -49 0
30 49 85 0
-86 -45 0
-86 -21 0
45 21 86 0
-87 85 0
-87 86 0
-85 -86 87 0
88 2 0
88 -31 0
-2 31 -88 0
89 25 0
89 25 0
-25 -89 0
89 -3 -90 0
-89 3 -90 0
89 3 90 0
-89 -3 90 0
-91 88 0
-91 -90 0
-88 90 91 0
1 -92 -93 0
-1 92 -93 0
1 92 93 0
-1 -92 93 0
-94 22 0
-94 -93 0
-22 93 94 0
56 94 -95 0
-56 -94 -95 0
56 -94 95 0
-56 94 95 0
96 -95 0
96 -7 0
95 7 -96 0
-91 -96 -97 0
91 96 -97 0
-91 96 97 0
91 -96 97 0
47 4 -98 0
-47 -4 -98 0
47 -4 98 0
-47 4 98 0
-99 98 0
-99 73 0
-98 -73 99 0
100 -18 0
100 21 0
18 -21 -100 0
101 44 0
101 48 0
-44 -48 -101 0
-100 -101 -102 0
100 101 -102 0
-100 101 102 0
100 -101 102 0
-103 99 0
-103 102 0
-99 -102 103 0
-104 7 0
-104 -29 0
-7 29 104 0
-92 104 -105 0
92 -104 -105 0
-92 -104 105 0
92 104 105 0
-106 45 0
-106 -105 0
-45 105 106 0
-107 -4 0
-107 4 0
106 107 -108 0
-106 -107 -108 0
106 -107 108 0
-106 107 108 0
109 -103 0
109 108 0
103 -108 -109 0
110 -97 0
110 -109 0
97 109 -110 0
111 87 0
111 110 0
-87 -110 -111 0
-112 -84 0
-112 111 0
84 -111 112 0
-2 -58 -113 0
2 58 -113 0
-2 58 113 0
2 -58 113 0
-114 -37 0
-114 25 0
37 -25 114 0
-115 114 0
-115 -24 0
-114 24 115 0
-116 115 0
-116 23 0
-115 -23 116 0
-117 113 0
-117 116 0
-113 -116 117 0
118 112 0
118 -117 0
-112 117 -118 0
-80 118 -119 0
80 -118 -119 0
-80 -118 119 0
80 118 119 0
120 -12 0
120 -20 0
12 20 -120 0
-121 -81 0
-121 1 0
81 -1 121 0
122 -121 0
122 -92 0
121 92 -122 0
-123 122 0
-123 35 0
-122 -35 123 0
120 -123 -124 0
-120 123 -124 0
120 123 124 0
-120 -123 124 0
125 -73 -126 0
-125 73 -126 0
125 73 126 0
-125 -73 126 0
21 92 -127 0
-21 -92 -127 0
21 -92 127 0
-21 92 127 0
128 -98 0
128 -81 0
98 81 -128 0
1 -128 -129 0
-1 128 -129 0
1 128 129 0
-1 -128 129 0
130 127 0
130 -129 0
-127 129 -130 0
-126 -130 -131 0
126 130 -131 0
-126 130 131 0
126 -130 131 0
132 -124 0
132 131 0
124 -131 -132 0
133 47 0
133 -19 0
-47 19 -133 0
-134 4 0
-134 31 0
-4 -31 134 0
135 133 0
135 -134 0
-133 134 -135 0
136 5 0
136 135 0
-5 -135 -136 0
137 136 0
137 25 0
-136 -25 -137 0
138 132 0
138 137 0
-132 -137 -138 0
-139 -119 0
-139 138 0
119 -138 139 0
140 71 0
140 -139 0
-71 139 -140 0
-7 135 -141 0
7 -135 -141 0
-7 -135 141 0
7 135 141 0
142 -140 0
142 141 0
140 -141 -142 0
-143 62 0
-143 142 0
-62 -142 143 0
-144 17 0
-144 143 0
-17 -143 144 0
135 -80 31 58 -69 0
9 -125 101 -68 91 0
-66 120 13 -6 116 0
-132 -89 -112 -117 0
71 36 -133 -66 0
-143 -138 24 -141 -106 -131 0
-31 49 -30 132 35 -54 0
73 -98 33 0
111 -87 24 0
-110 -64 77 -55 95 0
73 90 -129 135 -86 -103 0
-56 -28 0
-62 -26 -90 -115 -137 118 0
-4 124 11 67 -18 -89 0
80 -83 -74 -89 0
41 67 0
-93 -36 0
-47 133 -94 14 31 0
-78 129 -112 -54 80 0
42 -81 143 -95 0
22 -71 105 0
16 79 102 0
-8 -58 -88 10 0
-86 -19 56 63 41 0
-65 37 142 -4 0
68 -11 134 23 77 -74 0
64 91 8 -23 0
-34 102 48 137 -21 -93 0
-20 143 0
-126 27 0
20 78 126 0
83 -103 -116 92 30 0
82 -46 -92 -6 -21 0
-51 -35 0
57 111 -112 -4 -9 -34 0
-107 -52 115 62 0
70 34 -71 -6 0
-91 136 -1 -133 -144 0
107 -71 -24 0
-128 -135 0
-53 5 -67 73 -24 -103 0
94 -25 121 -50 0
-54 -91 -25 -39 0
-25 37 -73 -13 0
9 137 -114 75 -24 -126 0
-48 -74 44 0
59 -133 0
-142 75 0
85 100 -28 47 0
-31 18 -143 -64 63 0
-92 20 -103 -42 136 61 0
99 -58 88 0
-6 142 0
64 125 0
-65 131 0
-54 -102 -125 -72 0
106 4 99 -50 0
93 -79 -10 30 122 -111 0
-80 -2 71 0
-103 -49 0
18 -7 -13 48 6 -10 0
-80 59 30 0
-86 -85 34 20 -39 59 0
144 0
